Maximize
  0.0154316089717545 Z_344_0_0 + 0.8370547186003807 Z_344_0_1
   + 0.00395550648526884 Z_344_0_2 + 0.0115057877161539 Z_344_0_3
   + 0.0320523782264421 Z_344_0_4
Subject To
 constraint1_3440: Z_344_0_0 + Z_344_0_1 + Z_344_0_2 + Z_344_0_3
   + Z_344_0_4 <= 1
 constraint2_3440: Z_344_0_0 <= 1
 constraint2_3441: Z_344_0_1 <= 1
 constraint2_3442: Z_344_0_2 <= 1
 constraint2_3443: Z_344_0_3 <= 1
Bounds
Binaries
 Z_344_0_0 Z_344_0_1 Z_344_0_2 Z_344_0_3 Z_344_0_4
End
